  Job Started  at 12:36.53  8th May        2018

  Number of CPUs =     1

  Host name      = vingilot

  Total number of configurations input =  32

*  Input for Configuration =   1                                               *

  Formula = CNH6PbI3

  Number of irreducible atoms/shells =      12

  Total number atoms/shells =      12

  Dimensionality = 3               :  Bulk

  Cartesian lattice vectors (Angstroms) :

        6.310000    0.000000    0.000000
        0.000000    6.310000    0.000000
        0.000000    0.000000    6.310000

  Cell parameters (Angstroms/Degrees):

  a =       6.3100    alpha =  90.0000
  b =       6.3100    beta  =  90.0000
  c =       6.3100    gamma =  90.0000

  Initial cell volume =         251.239591 Angs**3

  Temperature of configuration =  0.000     K

  Pressure of configuration =         0.000 GPa

  Fractional coordinates of asymmetric unit :

   No.  Atomic       x           y          z         Charge      Occupancy
        Label      (Frac)      (Frac)     (Frac)        (e)         (Frac)
      1 C1    c    0.926220    0.000030    0.986320     0.77100    1.000000
      2 N1    c    0.153070 *  0.999890 *  0.046240 *  -1.10000    1.000000
      3 H1    c    0.913420 *  0.999930 *  0.812530 *   0.02300    1.000000
      4 H1    c    0.850990 *  0.143050 *  0.051610 *   0.02300    1.000000
      5 H1    c    0.850780 *  0.857200 *  0.051780 *   0.02300    1.000000
      6 H2    c    0.232080 *  0.133750 *  0.988930 *   0.54000    1.000000
      7 H2    c    0.231910 *  0.865890 *  0.989050 *   0.54000    1.000000
      8 H2    c    0.176810 *  0.999950 *  0.210250 *   0.54000    1.000000
      9 Pb    c    0.487890 *  0.499920 *  0.491270 *   2.03000    1.000000
     10 I     c    0.438800 *  0.499940 *  0.988060 *  -1.13000    1.000000
     11 I     c    0.447140 *  0.999880 *  0.526410 *  -1.13000    1.000000
     12 I     c    0.974130 *  0.499910 *  0.454690 *  -1.13000    1.000000

  Molecule list generated from bond lengths :

  Bonds between the following atom types will be excluded :

   H1    Core   - H2    Core
   H1    Core   - H1    Core
   H2    Core   - H2    Core
   H1    Core   - N1    Core
   H2    Core   - C1    Core
   Pb    Core   - Pb    Core
   I     Core   - I     Core
   Br    Core   - Br    Core
   I     Core   - Pb    Core
   Br    Core   - Pb    Core
   C1    Core   - Pb    Core
   N1    Core   - Pb    Core
   H1    Core   - Pb    Core
   H2    Core   - Pb    Core
   C1    Core   - I     Core
   C1    Core   - Br    Core
   N1    Core   - I     Core
   N1    Core   - Br    Core
   H1    Core   - I     Core
   H1    Core   - Br    Core
   H2    Core   - I     Core
   H2    Core   - Br    Core

  Total number of molecules =     1

Molecule No./:  Atoms
Periodicity  :
     1  0    : C1   c     1 N1   c     2 H1   c     3 H1   c     4 H1   c     5
             : H2   c     6 H2   c     7 H2   c     8

[...]

*  Input for Configuration =  32                                               *

  Formula = CNH6PbI3

  Number of irreducible atoms/shells =      12

  Total number atoms/shells =      12

  Dimensionality = 3               :  Bulk

  Cartesian lattice vectors (Angstroms) :

        5.800000    0.000000    0.000000
        0.000000    5.800000    0.000000
        0.000000    0.000000    5.800000

  Cell parameters (Angstroms/Degrees):

  a =       5.8000    alpha =  90.0000
  b =       5.8000    beta  =  90.0000
  c =       5.8000    gamma =  90.0000

  Initial cell volume =         195.112000 Angs**3

  Temperature of configuration =  0.000     K

  Pressure of configuration =         0.000 GPa

  Fractional coordinates of asymmetric unit :

   No.  Atomic       x           y          z         Charge      Occupancy
        Label      (Frac)      (Frac)     (Frac)        (e)         (Frac)
      1 C1    c    0.916770    0.000190    0.943180     0.77100    1.000000
      2 N1    c    0.124880 *  0.000000 *  0.088020 *  -1.10000    1.000000
      3 H1    c    0.970140 *  0.000340 *  0.761380 *   0.02300    1.000000
      4 H1    c    0.815140 *  0.156020 *  0.980340 *   0.02300    1.000000
      5 H1    c    0.814730 *  0.844590 *  0.980240 *   0.02300    1.000000
      6 H2    c    0.227200 *  0.145470 *  0.056100 *   0.54000    1.000000
      7 H2    c    0.226930 *  0.854270 *  0.056370 *   0.54000    1.000000
      8 H2    c    0.089100 *  0.000500 *  0.263010 *   0.54000    1.000000
      9 Pb    c    0.542380 *  0.501080 *  0.477330 *   2.03000    1.000000
     10 I     c    0.450200 *  0.500250 *  0.979740 *  -1.13000    1.000000
     11 I     c    0.475160 *  0.000660 *  0.551810 *  -1.13000    1.000000
     12 I     c    0.030600 *  0.495950 *  0.459620 *  -1.13000    1.000000

  Molecule list generated from bond lengths :

  Bonds between the following atom types will be excluded :

   H1    Core   - H2    Core
   H1    Core   - H1    Core
   H2    Core   - H2    Core
   H1    Core   - N1    Core
   H2    Core   - C1    Core
   Pb    Core   - Pb    Core
   I     Core   - I     Core
   Br    Core   - Br    Core
   I     Core   - Pb    Core
   Br    Core   - Pb    Core
   C1    Core   - Pb    Core
   N1    Core   - Pb    Core
   H1    Core   - Pb    Core
   H2    Core   - Pb    Core
   C1    Core   - I     Core
   C1    Core   - Br    Core
   N1    Core   - I     Core
   N1    Core   - Br    Core
   H1    Core   - I     Core
   H1    Core   - Br    Core
   H2    Core   - I     Core
   H2    Core   - Br    Core

  Total number of molecules =     1

Molecule No./:  Atoms
Periodicity  :
     1  0    : C1   c     1 N1   c     2 H1   c     3 H1   c     4 H1   c     5
             : H2   c     6 H2   c     7 H2   c     8

*  General input information                                                   *

  Species output for all configurations :

  Species    Type    Atomic    Atomic    Charge       Radii (Angs)     Library
                     Number     Mass       (e)     Cova   Ionic  VDW   Symbol
    C1       Core        6      12.01   0.771000   0.770  0.000  1.530
    N1       Core        7      14.01  -1.100000   0.750  0.000  1.480
    H1       Core        1       1.01   0.023000   0.370  0.000  1.080
    H2       Core        1       1.01   0.540000   0.370  0.000  1.080
    Pb       Core       82     207.20   2.030000   1.540  0.000  2.300
    I        Core       53     126.91  -1.130000   1.400  0.000  2.050
    Br       Core       35      79.90  -1.130000   1.210  0.000  1.800

  Lattice summation method               =    Ewald          (3-D)
                                         =    Parry          (2-D)
                                         =    Saunders et al (1-D)
  Accuracy factor for lattice sums       =   12.000

  Time limit = Infinity

  Maximum range for interatomic potentials =    100000.000000 Angstroms

  General interatomic potentials :

Atom  Types   Potential         A         B         C         D     Cutoffs(Ang)
  1     2                                                            Min    Max
C1   c C1   c Lenn/es 12  6 0.474E-02  3.40      0.00      0.00     3Bond 12.000
C1   c N1   c Lenn/es 12  6 0.591E-02  3.32      0.00      0.00     3Bond 12.000
H1   c C1   c Lenn/es 12  6 0.180E-02  2.68      0.00      0.00     3Bond 12.000
H2   c C1   c Lenn/es 12  6 0.180E-02  2.23      0.00      0.00     3Bond 12.000
N1   c N1   c Lenn/es 12  6 0.737E-02  3.25      0.00      0.00     3Bond 12.000
H1   c N1   c Lenn/es 12  6 0.224E-02  2.60      0.00      0.00     3Bond 12.000
H2   c N1   c Lenn/es 12  6 0.224E-02  2.16      0.00      0.00     3Bond 12.000
H1   c H1   c Lenn/es 12  6 0.681E-03  1.96      0.00      0.00     3Bond 12.000
H1   c H2   c Lenn/es 12  6 0.681E-03  1.51      0.00      0.00     3Bond 12.000
H1   c Pb   c Lenn/es 12  6 0.607E-03  2.26      0.00      0.00     3Bond 12.000
H1   c I    c Lenn/es 12  6 0.249E-02  3.10      0.00      0.00     3Bond 12.000
H2   c Br   c Lenn/es 12  6 0.222E-02  2.46      0.00      0.00     3Bond 12.000
H1   c Br   c Lenn/es 12  6 0.222E-02  2.77      0.00      0.00     3Bond 12.000
H2   c H2   c Lenn/es 12  6 0.681E-03  1.07      0.00      0.00     3Bond 12.000
H2   c Pb   c Lenn/es 12  6 0.607E-03  2.71      0.00      0.00     3Bond 12.000
H2   c I    c Lenn/es 12  6 0.249E-02  2.75      0.00      0.00     3Bond 12.000

  Intramolecular potentials :

Atom  Types   Potential         A         B         C         D     Cutoffs(Ang)
  1     2                                                            Min    Max
C1   c N1   c Harmonic       25.5      1.50      0.00      0.00     0.000 1 Bond
H1   c C1   c Harmonic       29.4      1.09      0.00      0.00     0.000 1 Bond
H2   c N1   c Harmonic       32.0      1.03      0.00      0.00     0.000 1 Bond

  Intermolecular potentials :

Atom  Types   Potential         A         B         C         D     Cutoffs(Ang)
  1     2                                                            Min    Max
Pb   c Pb   c Buckingham    0.305E+07 0.131      0.00      0.00     0.000 12.000
Br   c Pb   c Buckingham    0.478E+04 0.302      0.00      0.00     0.000 12.000
Br   c Br   c Buckingham    0.105E+04 0.453      28.4      0.00     0.000 12.000
I    c Pb   c Buckingham    0.449E+04 0.322      0.00      0.00     0.000 12.000
I    c I    c Buckingham     988.     0.482      30.2      0.00     0.000 12.000
C1   c Pb   c Buckingham    0.142E+07 0.151      0.00      0.00     0.000 12.000
C1   c I    c Buckingham    0.490E+04 0.342      0.00      0.00     0.000 12.000
N1   c Pb   c Buckingham    0.142E+07 0.151      0.00      0.00     0.000 12.000
N1   c I    c Buckingham    0.490E+04 0.342      0.00      0.00     0.000 12.000
N1   c Br   c Buckingham     210.     0.335      0.00      0.00     0.000 12.000
C1   c Br   c Buckingham    0.411E+04 0.335      0.00      0.00     0.000 12.000

  Intramolecular Three-body potentials :

  Harmonic form:

Atom    Atom    Atom           Force Constants            Theta     Cutoffs
  1       2       3     (eVrad**-2/eVrad**-3/eVrad**-4)   (deg)  1-2  1-3  2-3
C1    c H1    c N1    c  4.250        0.0000    0.0000   107.910     Bonded
C1    c H1    c H1    c  3.382        0.0000    0.0000   110.740     Bonded
N1    c H2    c C1    c  4.007        0.0000    0.0000   110.110     Bonded
N1    c H2    c H2    c  3.513        0.0000    0.0000   108.110     Bonded

  Intramolecular Four-body potentials :

  Standard form:

         Atom Types             Force cst Sign Phase Phi0         Cutoffs
   1       2       3       4       (eV)                     1-2  2-3  3-4  4-1
H1    c C1    c N1    c H2    c  0.3374E-02 +   3     0.00  Bonded

!! WARNING : Fitted parameter initially set to zero

  Number of variables   =    3
  Number of observables = 1088

   Observable no.  Type           Observable    Weight       Reference  Confign
          1        Energy            0.000000      100.0000                1
          2        Energy            0.000305      100.0000                2
          3        Energy            0.000484      100.0000                3
          4        Energy            0.001934      100.0000                4
[...]
         68        Derivative         0.00000     -1.67271      2.79797
         69        Derivative         0.00000     -0.90506      0.81913
         70        Derivative         0.00000     -0.00062      0.00000
         71        Derivative         0.00000     -1.48750      2.21265
         72        Derivative         0.00000     -1.29171      1.66852
         73        Derivative         0.00000      1.17283      1.37552
         74        Derivative         0.00000      0.31819      0.10125
         75        Derivative         0.00000     -1.28235      1.64441
         76        Derivative         0.00000     -1.14966      1.32172
         77        Derivative         0.00000      0.31019      0.09622
         78        Derivative         0.00000      1.32839      1.76463
         79        Derivative         0.00000      0.47173      0.22253
         80        Derivative         0.00000      0.44795      0.20066
         81        Derivative         0.00000      1.33240      1.77528
         82        Derivative         0.00000     -0.48442      0.23467
         83        Derivative         0.00000      0.44424      0.19734
         84        Derivative         0.00000      1.34622      1.81231
         85        Derivative         0.00000     -0.00084      0.00000
         86        Derivative         0.00000      0.93096      0.86670
         87        Derivative         0.00000      1.35296      1.83049
         88        Derivative         0.00000     -0.00363      0.00001
         89        Derivative         0.00000     -0.57105      0.32610
         90        Derivative         0.00000     -1.88466      3.55195
         91        Derivative         0.00000      0.00365      0.00001
         92        Derivative         0.00000     -0.17575      0.03089
[...]
       1074        Derivative         0.00000     -0.55655      0.30974
       1075        Derivative         0.00000     -0.12065      0.01456
       1076        Derivative         0.00000      0.66686      0.44471
       1077        Derivative         0.00000      4.70119     22.10116
       1078        Derivative         0.00000      0.20238      0.04096
       1079        Derivative         0.00000     -3.19043     10.17883
       1080        Derivative         0.00000     -6.46532     41.80032
       1081        Derivative         0.00000     -0.18418      0.03392
       1082        Derivative         0.00000     -3.97185     15.77561
       1083        Derivative         0.00000     -5.85099     34.23412
       1084        Derivative         0.00000      0.36722      0.13485
       1085        Derivative         0.00000      4.87463     23.76201
       1086        Derivative         0.00000      7.82107     61.16916
       1087        Derivative         0.00000     -0.40423      0.16340
       1088        Derivative         0.00000     -0.21754      0.04732

  Comparison of initial and final observables :

   Observable no.  Type            Observable   Initial       Final
          1        Energy             0.00000    -31.26494    -31.26494
          2        Energy             0.00031    -31.26716    -31.26716
          3        Energy             0.00048    -31.25945    -31.25945
          4        Energy             0.00193    -31.26139    -31.26138
          5        Energy             0.00280    -31.27415    -31.27415
          6        Energy             0.00533    -31.24656    -31.24656
          7        Energy             0.01005    -31.28001    -31.28000
          8        Energy             0.01967    -31.23445    -31.23444
          9        Energy             0.03551    -31.24713    -31.24713
         10        Energy             0.04005    -31.14588    -31.14587
         11        Energy             0.07075    -31.16748    -31.16747
         12        Energy             0.08036    -31.13578    -31.13577
         13        Energy             0.13443    -31.10478    -31.10478
         14        Energy             0.14287    -31.00109    -31.00108
         15        Energy             0.16556    -30.94035    -30.94034
         16        Energy             0.20301    -30.98252    -30.98251
         17        Energy             0.23934    -30.76760    -30.76760
         18        Energy             0.24901    -30.98281    -30.98280
         19        Energy             0.26582    -30.99947    -30.99946
         20        Energy             0.26665    -30.96899    -30.96898
         21        Energy             0.27509    -30.91770    -30.91769
         22        Energy             0.29093    -31.02216    -31.02216
         23        Energy             0.29298    -30.99839    -30.99838
         24        Energy             0.31137    -30.59592    -30.59592
         25        Energy             0.31875    -30.86559    -30.86558
         26        Energy             0.32447    -30.91640    -30.91640
         27        Energy             0.35755    -30.91546    -30.91545
         28        Energy             0.42851    -30.83800    -30.83800
         29        Energy             0.47408    -30.85212    -30.85211
         30        Energy             0.51929    -30.81745    -30.81744
         31        Energy             0.60004    -30.46333    -30.46332
         32        Energy             1.00538    -29.81348    -29.81347
         33        Derivative         0.00000     -3.93357     -3.93357
         34        Derivative         0.00000     -0.01532     -0.01532
         35        Derivative         0.00000     -1.66958     -1.66958
         36        Derivative         0.00000     -0.88101     -0.88101
         37        Derivative         0.00000     -0.00143     -0.00143
         38        Derivative         0.00000     -1.53464     -1.53464
         39        Derivative         0.00000     -1.28494     -1.28494
         40        Derivative         0.00000      1.17069      1.17069
         41        Derivative         0.00000      0.32010      0.32010
         42        Derivative         0.00000     -1.28499     -1.28499
         43        Derivative         0.00000     -1.16798     -1.16798
         44        Derivative         0.00000      0.32077      0.32077
         45        Derivative         0.00000      1.32211      1.32211
         46        Derivative         0.00000      0.54301      0.54301
         47        Derivative         0.00000      0.40311      0.40311
         48        Derivative         0.00000      1.31324      1.31324
         49        Derivative         0.00000     -0.53042     -0.53042
         50        Derivative         0.00000      0.40950      0.40950
         51        Derivative         0.00000      1.28494      1.28494
         52        Derivative         0.00000      0.00102      0.00102
         53        Derivative         0.00000      1.00995      1.00995
         54        Derivative         0.00000      1.34283      1.34283
         55        Derivative         0.00000     -0.00201     -0.00201
         56        Derivative         0.00000     -0.59386     -0.59386
         57        Derivative         0.00000     -1.83911     -1.83911
         58        Derivative         0.00000      0.00483      0.00483
         59        Derivative         0.00000     -0.17214     -0.17214
         60        Derivative         0.00000     -1.67772     -1.67772
         61        Derivative         0.00000     -0.00735     -0.00735
         62        Derivative         0.00000      1.96613      1.96613
         63        Derivative         0.00000      2.10122      2.10122
         64        Derivative         0.00000      0.00290      0.00290
         65        Derivative         0.00000     -1.26490     -1.26490
         66        Derivative         0.00000     -4.07990     -4.07990
         67        Derivative         0.00000      0.01469      0.01469
         68        Derivative         0.00000     -1.67271     -1.67271
         69        Derivative         0.00000     -0.90506     -0.90506
         70        Derivative         0.00000     -0.00062     -0.00062
         71        Derivative         0.00000     -1.48750     -1.48750
         72        Derivative         0.00000     -1.29171     -1.29171
         73        Derivative         0.00000      1.17283      1.17283
         74        Derivative         0.00000      0.31819      0.31819
         75        Derivative         0.00000     -1.28235     -1.28235
         76        Derivative         0.00000     -1.14966     -1.14966
         77        Derivative         0.00000      0.31019      0.31019
         78        Derivative         0.00000      1.32839      1.32839
         79        Derivative         0.00000      0.47173      0.47173
         80        Derivative         0.00000      0.44795      0.44795
         81        Derivative         0.00000      1.33240      1.33240
         82        Derivative         0.00000     -0.48442     -0.48442
         83        Derivative         0.00000      0.44424      0.44424
         84        Derivative         0.00000      1.34622      1.34622
         85        Derivative         0.00000     -0.00084     -0.00084
         86        Derivative         0.00000      0.93096      0.93096
         87        Derivative         0.00000      1.35296      1.35296
         88        Derivative         0.00000     -0.00363     -0.00363
         89        Derivative         0.00000     -0.57105     -0.57105
         90        Derivative         0.00000     -1.88466     -1.88466
         91        Derivative         0.00000      0.00365      0.00365
         92        Derivative         0.00000     -0.17575     -0.17575
[...]
       1074        Derivative         0.00000     -0.55655     -0.55655
       1075        Derivative         0.00000     -0.12065     -0.12065
       1076        Derivative         0.00000      0.66686      0.66686
       1077        Derivative         0.00000      4.70119      4.70119
       1078        Derivative         0.00000      0.20238      0.20238
       1079        Derivative         0.00000     -3.19043     -3.19043
       1080        Derivative         0.00000     -6.46532     -6.46532
       1081        Derivative         0.00000     -0.18418     -0.18418
       1082        Derivative         0.00000     -3.97185     -3.97185
       1083        Derivative         0.00000     -5.85099     -5.85099
       1084        Derivative         0.00000      0.36722      0.36722
       1085        Derivative         0.00000      4.87463      4.87463
       1086        Derivative         0.00000      7.82107      7.82107
       1087        Derivative         0.00000     -0.40423     -0.40423
       1088        Derivative         0.00000     -0.21754     -0.21754

  Maximum range for interatomic potentials =    100000.000000 Angstroms

  General interatomic potentials :

Atom  Types   Potential         A         B         C         D     Cutoffs(Ang)
  1     2                                                            Min    Max
C1   c C1   c Lenn/es 12  6 0.474E-02  3.40      0.00      0.00     3Bond 12.000
C1   c N1   c Lenn/es 12  6 0.591E-02  3.32      0.00      0.00     3Bond 12.000
H1   c C1   c Lenn/es 12  6 0.180E-02  2.68      0.00      0.00     3Bond 12.000
H2   c C1   c Lenn/es 12  6 0.180E-02  2.23      0.00      0.00     3Bond 12.000
N1   c N1   c Lenn/es 12  6 0.737E-02  3.25      0.00      0.00     3Bond 12.000
H1   c N1   c Lenn/es 12  6 0.224E-02  2.60      0.00      0.00     3Bond 12.000
H2   c N1   c Lenn/es 12  6 0.224E-02  2.16      0.00      0.00     3Bond 12.000
H1   c H1   c Lenn/es 12  6 0.681E-03  1.96      0.00      0.00     3Bond 12.000
H1   c H2   c Lenn/es 12  6 0.681E-03  1.51      0.00      0.00     3Bond 12.000
H1   c Pb   c Lenn/es 12  6 0.607E-03  2.26      0.00      0.00     3Bond 12.000
H1   c I    c Lenn/es 12  6 0.249E-02  3.10      0.00      0.00     3Bond 12.000
H2   c Br   c Lenn/es 12  6 0.222E-02  2.46      0.00      0.00     3Bond 12.000
H1   c Br   c Lenn/es 12  6 0.222E-02  2.77      0.00      0.00     3Bond 12.000
H2   c H2   c Lenn/es 12  6 0.681E-03  1.07      0.00      0.00     3Bond 12.000
H2   c Pb   c Lenn/es 12  6 0.607E-03  2.71      0.00      0.00     3Bond 12.000
H2   c I    c Lenn/es 12  6 0.249E-02  2.75      0.00      0.00     3Bond 12.000

  Intramolecular potentials :

Atom  Types   Potential         A         B         C         D     Cutoffs(Ang)
  1     2                                                            Min    Max
C1   c N1   c Harmonic       25.5      1.50      0.00      0.00     0.000 1 Bond
H1   c C1   c Harmonic       29.4      1.09      0.00      0.00     0.000 1 Bond
H2   c N1   c Harmonic       32.0      1.03      0.00      0.00     0.000 1 Bond

  Intermolecular potentials :

Atom  Types   Potential         A         B         C         D     Cutoffs(Ang)
  1     2                                                            Min    Max
Pb   c Pb   c Buckingham    0.305E+07 0.131     0.309E-06  0.00     0.000 12.000
Br   c Pb   c Buckingham    0.478E+04 0.302      0.00      0.00     0.000 12.000
Br   c Br   c Buckingham    0.105E+04 0.453      28.4      0.00     0.000 12.000
I    c Pb   c Buckingham    0.449E+04 0.322      0.00      0.00     0.000 12.000
I    c I    c Buckingham     988.     0.482      30.2      0.00     0.000 12.000
C1   c Pb   c Buckingham    0.142E+07 0.151      0.00      0.00     0.000 12.000
C1   c I    c Buckingham    0.490E+04 0.342      0.00      0.00     0.000 12.000
N1   c Pb   c Buckingham    0.142E+07 0.151      0.00      0.00     0.000 12.000
N1   c I    c Buckingham    0.490E+04 0.342      0.00      0.00     0.000 12.000
N1   c Br   c Buckingham     210.     0.335      0.00      0.00     0.000 12.000
C1   c Br   c Buckingham    0.411E+04 0.335      0.00      0.00     0.000 12.000

  Intramolecular Three-body potentials :

  Harmonic form:

Atom    Atom    Atom           Force Constants            Theta     Cutoffs
  1       2       3     (eVrad**-2/eVrad**-3/eVrad**-4)   (deg)  1-2  1-3  2-3
C1    c H1    c N1    c  4.250        0.0000    0.0000   107.910     Bonded
C1    c H1    c H1    c  3.382        0.0000    0.0000   110.740     Bonded
N1    c H2    c C1    c  4.007        0.0000    0.0000   110.110     Bonded
N1    c H2    c H2    c  3.513        0.0000    0.0000   108.110     Bonded

  Intramolecular Four-body potentials :

  Standard form:

         Atom Types             Force cst Sign Phase Phi0         Cutoffs
   1       2       3       4       (eV)                     1-2  2-3  3-4  4-1
H1    c C1    c N1    c H2    c  0.3374E-02 +   3     0.00  Bonded

  Total time to end of fitting =       6.2226 seconds

*  Output for configuration   1                                                *

  Components of energy :

  Interatomic potentials     =           3.20283355 eV
  Three-body potentials      =           0.01674654 eV
  Four-body potentials       =           0.00000956 eV
  Improper torsions          =           0.00000000 eV
  Out of plane potentials    =           0.00000000 eV
  Monopole - monopole (real) =          -5.17279921 eV
  Monopole - monopole (recip)=         -29.31172865 eV
  Monopole - monopole (total)=         -34.48452786 eV
  Total lattice energy       =         -31.26493821 eV
  Total lattice energy       =           -3016.5886 kJ/(mole unit cells)

[...]

*  Output for configuration  32                                                *

  Components of energy :

  Interatomic potentials     =           7.08027815 eV
  Three-body potentials      =           0.01403611 eV
  Four-body potentials       =           0.00000442 eV
  Improper torsions          =           0.00000000 eV
  Out of plane potentials    =           0.00000000 eV
  Monopole - monopole (real) =          -5.12247419 eV
  Monopole - monopole (recip)=         -31.78531865 eV
  Monopole - monopole (total)=         -36.90779283 eV
  Total lattice energy       =         -29.81347416 eV
  Total lattice energy       =           -2876.5445 kJ/(mole unit cells)

  Timing analysis for GULP :

  Task / Subroutine                                          Time (Seconds)
  Calculation of reciprocal space energy and derivatives          0.4720
  Calculation of real space energy and derivatives                3.9269
  Calculation of three-body energy and derivatives                0.8200
  Calculation of four-body energy and derivatives                 0.9614
  Calculation of molecules and connectivity                       0.0611
  Sum of squares for fitting                                      0.0681
  Global summation overhead                                       0.0012

  **** GULP has completed with 1 warning - beware! ****

  Job Finished at 12:36.57  8th May        2018