  Job Started  at 08:07.54 16th May        2018

  Number of CPUs =     4

  Host name      = navaja

  Total number of configurations input =   1

*  Input for Configuration =   1                                               *

  Formula = C8N8H48Pb8I24

  Number of irreducible atoms/shells =      96

  Total number atoms/shells =      96

  Dimensionality = 3               :  Bulk

  Supercell dimensions :  x =   2  y =   2  z =   2

  Cartesian lattice vectors (Angstroms) :

       11.600000    0.000000    0.000000
        0.000000   11.600000    0.000000
        0.000000    0.000000   11.600000

  Cell parameters (Angstroms/Degrees):

  a =      11.6000    alpha =  90.0000
  b =      11.6000    beta  =  90.0000
  c =      11.6000    gamma =  90.0000

  Initial cell volume =        1560.896000 Angs**3

  Temperature of configuration =  0.000     K

  Pressure of configuration =         0.000 GPa

  Fractional coordinates of asymmetric unit :

   No.  Atomic       x           y          z         Charge      Occupancy
        Label      (Frac)      (Frac)     (Frac)        (e)         (Frac)
      1 C1    c    0.458385    0.000095    0.471590     0.56691    1.000000
      2 C1    c    0.458385    0.000095    0.971590     0.56691    1.000000
      3 C1    c    0.458385    0.500095    0.471590     0.56691    1.000000
      4 C1    c    0.458385    0.500095    0.971590     0.56691    1.000000
      5 C1    c    0.958385    0.000095    0.471590     0.56691    1.000000
      6 C1    c    0.958385    0.000095    0.971590     0.56691    1.000000
      7 C1    c    0.958385    0.500095    0.471590     0.56691    1.000000
      8 C1    c    0.958385    0.500095    0.971590     0.56691    1.000000
      9 N1    c    0.062440    0.000000    0.044010    -0.80882    1.000000
     10 N1    c    0.062440    0.000000    0.544010    -0.80882    1.000000
     11 N1    c    0.062440    0.500000    0.044010    -0.80882    1.000000
     12 N1    c    0.062440    0.500000    0.544010    -0.80882    1.000000
     13 N1    c    0.562440    0.000000    0.044010    -0.80882    1.000000
     14 N1    c    0.562440    0.000000    0.544010    -0.80882    1.000000
     15 N1    c    0.562440    0.500000    0.044010    -0.80882    1.000000
     16 N1    c    0.562440    0.500000    0.544010    -0.80882    1.000000
     17 H1    c    0.485070    0.000170    0.380690     0.01691    1.000000
     18 H1    c    0.485070    0.000170    0.880690     0.01691    1.000000
     19 H1    c    0.485070    0.500170    0.380690     0.01691    1.000000
     20 H1    c    0.485070    0.500170    0.880690     0.01691    1.000000
     21 H1    c    0.985070    0.000170    0.380690     0.01691    1.000000
     22 H1    c    0.985070    0.000170    0.880690     0.01691    1.000000
     23 H1    c    0.985070    0.500170    0.380690     0.01691    1.000000
     24 H1    c    0.985070    0.500170    0.880690     0.01691    1.000000
     25 H1    c    0.407570    0.078010    0.490170     0.01691    1.000000
     26 H1    c    0.407570    0.078010    0.990170     0.01691    1.000000
     27 H1    c    0.407570    0.578010    0.490170     0.01691    1.000000
     28 H1    c    0.407570    0.578010    0.990170     0.01691    1.000000
     29 H1    c    0.907570    0.078010    0.490170     0.01691    1.000000
     30 H1    c    0.907570    0.078010    0.990170     0.01691    1.000000
     31 H1    c    0.907570    0.578010    0.490170     0.01691    1.000000
     32 H1    c    0.907570    0.578010    0.990170     0.01691    1.000000
     33 H1    c    0.407365    0.422295    0.490120     0.01691    1.000000
     34 H1    c    0.407365    0.422295    0.990120     0.01691    1.000000
     35 H1    c    0.407365    0.922295    0.490120     0.01691    1.000000
     36 H1    c    0.407365    0.922295    0.990120     0.01691    1.000000
     37 H1    c    0.907365    0.422295    0.490120     0.01691    1.000000
     38 H1    c    0.907365    0.422295    0.990120     0.01691    1.000000
     39 H1    c    0.907365    0.922295    0.490120     0.01691    1.000000
     40 H1    c    0.907365    0.922295    0.990120     0.01691    1.000000
     41 H2    c    0.113600    0.072735    0.028050     0.39706    1.000000
     42 H2    c    0.113600    0.072735    0.528050     0.39706    1.000000
     43 H2    c    0.113600    0.572735    0.028050     0.39706    1.000000
     44 H2    c    0.113600    0.572735    0.528050     0.39706    1.000000
     45 H2    c    0.613600    0.072735    0.028050     0.39706    1.000000
     46 H2    c    0.613600    0.072735    0.528050     0.39706    1.000000
     47 H2    c    0.613600    0.572735    0.028050     0.39706    1.000000
     48 H2    c    0.613600    0.572735    0.528050     0.39706    1.000000
     49 H2    c    0.113465    0.427135    0.028185     0.39706    1.000000
     50 H2    c    0.113465    0.427135    0.528185     0.39706    1.000000
     51 H2    c    0.113465    0.927135    0.028185     0.39706    1.000000
     52 H2    c    0.113465    0.927135    0.528185     0.39706    1.000000
     53 H2    c    0.613465    0.427135    0.028185     0.39706    1.000000
     54 H2    c    0.613465    0.427135    0.528185     0.39706    1.000000
     55 H2    c    0.613465    0.927135    0.028185     0.39706    1.000000
     56 H2    c    0.613465    0.927135    0.528185     0.39706    1.000000
     57 H2    c    0.044550    0.000250    0.131505     0.39706    1.000000
     58 H2    c    0.044550    0.000250    0.631505     0.39706    1.000000
     59 H2    c    0.044550    0.500250    0.131505     0.39706    1.000000
     60 H2    c    0.044550    0.500250    0.631505     0.39706    1.000000
[...]
     82 I     c    0.237580    0.000330    0.775905    -0.83088    1.000000
     83 I     c    0.237580    0.500330    0.275905    -0.83088    1.000000
     84 I     c    0.237580    0.500330    0.775905    -0.83088    1.000000
     85 I     c    0.737580    0.000330    0.275905    -0.83088    1.000000
     86 I     c    0.737580    0.000330    0.775905    -0.83088    1.000000
     87 I     c    0.737580    0.500330    0.275905    -0.83088    1.000000
     88 I     c    0.737580    0.500330    0.775905    -0.83088    1.000000
     89 I     c    0.015300    0.247975    0.229810    -0.83088    1.000000
     90 I     c    0.015300    0.247975    0.729810    -0.83088    1.000000
     91 I     c    0.015300    0.747975    0.229810    -0.83088    1.000000
     92 I     c    0.015300    0.747975    0.729810    -0.83088    1.000000
     93 I     c    0.515300    0.247975    0.229810    -0.83088    1.000000
     94 I     c    0.515300    0.247975    0.729810    -0.83088    1.000000
     95 I     c    0.515300    0.747975    0.229810    -0.83088    1.000000
     96 I     c    0.515300    0.747975    0.729810    -0.83088    1.000000

  Molecule list generated from bond lengths :

  Bonds between the following atom types will be excluded :

   H1    Core   - H2    Core
   H1    Core   - H1    Core
   H2    Core   - H2    Core
   H1    Core   - N1    Core
   H2    Core   - C1    Core
   Pb    Core   - Pb    Core
   I     Core   - I     Core
   Br    Core   - Br    Core
   I     Core   - Pb    Core
   Br    Core   - Pb    Core
   C1    Core   - Pb    Core
   N1    Core   - Pb    Core
   H1    Core   - Pb    Core
   H2    Core   - Pb    Core
   C1    Core   - I     Core
   C1    Core   - Br    Core
   N1    Core   - I     Core
   N1    Core   - Br    Core
   H1    Core   - I     Core
   H1    Core   - Br    Core
   H2    Core   - I     Core
   H2    Core   - Br    Core

  Total number of molecules =     8

Molecule No./:  Atoms
Periodicity  :
     1  0    : C1   c     1 N1   c    14 H1   c    17 H1   c    25 H1   c    35
             : H2   c    46 H2   c    56 H2   c    62
     2  0    : C1   c     2 N1   c    13 H1   c    18 H1   c    26 H1   c    36
             : H2   c    45 H2   c    55 H2   c    61
     3  0    : C1   c     3 N1   c    16 H1   c    19 H1   c    27 H1   c    33
             : H2   c    48 H2   c    54 H2   c    64
     4  0    : C1   c     4 N1   c    15 H1   c    20 H1   c    28 H1   c    34
             : H2   c    47 H2   c    53 H2   c    63
     5  0    : C1   c     5 N1   c    10 H1   c    21 H1   c    29 H1   c    39
             : H2   c    42 H2   c    52 H2   c    58
     6  0    : C1   c     6 N1   c     9 H1   c    22 H1   c    30 H1   c    40
             : H2   c    41 H2   c    51 H2   c    57
     7  0    : C1   c     7 N1   c    12 H1   c    23 H1   c    31 H1   c    37
             : H2   c    44 H2   c    50 H2   c    60
     8  0    : C1   c     8 N1   c    11 H1   c    24 H1   c    32 H1   c    38
             : H2   c    43 H2   c    49 H2   c    59

*  General input information                                                   *

  Species output for all configurations :

  Species    Type    Atomic    Atomic    Charge       Radii (Angs)     Library
                     Number     Mass       (e)     Cova   Ionic  VDW   Symbol
    C1       Core        6      12.01   0.566912   0.770  0.000  1.530
    N1       Core        7      14.01  -0.808824   0.750  0.000  1.480
    H1       Core        1       1.01   0.016912   0.370  0.000  1.080
    H2       Core        1       1.01   0.397059   0.370  0.000  1.080
    Pb       Core       82     207.20   1.492647   1.540  0.000  2.300
    I        Core       53     126.91  -0.830882   1.400  0.000  2.050

  Lattice summation method               =    Ewald          (3-D)
                                         =    Parry          (2-D)
                                         =    Saunders et al (1-D)
  Accuracy factor for lattice sums       =   12.000

  Time limit = Infinity

  Maximum range for interatomic potentials =    100000.000000 Angstroms

  General interatomic potentials :

Atom  Types   Potential         A         B         C         D     Cutoffs(Ang)
  1     2                                                            Min    Max
C1   c C1   c Lenn/es 12  6 0.137E-02  2.30      0.00      0.00     3Bond 12.000
N1   c N1   c Lenn/es 12  6 0.371E-03  2.29      0.00      0.00     3Bond 12.000
H1   c H1   c Lenn/es 12  6 0.479E-03  2.04      0.00      0.00     3Bond 12.000
H2   c H2   c Lenn/es 12  6 0.394E-03  2.07      0.00      0.00     3Bond 12.000
Pb   c Pb   c Lenn/es 12  6 0.112E-03  2.77      0.00      0.00     3Bond 12.000
I    c I    c Lenn/es 12  6 0.108E-01  5.38      0.00      0.00     3Bond 12.000

  Intramolecular potentials :

Atom  Types   Potential         A         B         C         D     Cutoffs(Ang)
  1     2                                                            Min    Max
C1   c N1   c Harmonic       25.5      1.50      0.00      0.00     0.000 1 Bond
H1   c C1   c Harmonic       29.4      1.09      0.00      0.00     0.000 1 Bond
H2   c N1   c Harmonic       32.0      1.03      0.00      0.00     0.000 1 Bond

  Intramolecular Three-body potentials :

  Harmonic form:

Atom    Atom    Atom           Force Constants            Theta     Cutoffs
  1       2       3     (eVrad**-2/eVrad**-3/eVrad**-4)   (deg)  1-2  1-3  2-3
C1    c H1    c N1    c  4.250        0.0000    0.0000   107.910     Bonded
C1    c H1    c H1    c  3.382        0.0000    0.0000   110.740     Bonded
N1    c H2    c C1    c  4.007        0.0000    0.0000   110.110     Bonded
N1    c H2    c H2    c  3.513        0.0000    0.0000   108.110     Bonded

  Intramolecular Four-body potentials :

  Standard form:

         Atom Types             Force cst Sign Phase Phi0         Cutoffs
   1       2       3       4       (eV)                     1-2  2-3  3-4  4-1
H1    c C1    c N1    c H2    c  0.3374E-02 +   3     0.00  Bonded

*  Output for configuration   1                                                *

  Components of energy :

  Interatomic potentials     =          22.87766043 eV
  Three-body potentials      =           0.11228886 eV
  Four-body potentials       =           0.00003534 eV
  Improper torsions          =           0.00000000 eV
  Out of plane potentials    =           0.00000000 eV
  Monopole - monopole (real) =         -76.14463434 eV
  Monopole - monopole (recip)=         -83.49114788 eV
  Monopole - monopole (total)=        -159.63578222 eV
  Total lattice energy       =        -136.64579758 eV
  Total lattice energy       =          -13184.2306 kJ/(mole unit cells)

  Timing analysis for GULP :

  Task / Subroutine                                          Time (Seconds)
  Calculation of reciprocal space energy and derivatives          0.0007
  Calculation of real space energy and derivatives                0.0111
  Calculation of three-body energy and derivatives                0.0002
  Calculation of molecules and connectivity                       0.0014
  Global summation overhead                                       0.0051

  CIF file written as test.cif

  Job Finished at 08:07.54 16th May        2018