  Job Started  at 18:55.50  8th May        2018

  Number of CPUs =     4

  Host name      = vingilot

  Total number of configurations input =  17

*  Input for Configuration =   1                                               *

  Formula = C2N2H12Pb2Br6

  Number of irreducible atoms/shells =      24

  Total number atoms/shells =      24

  Dimensionality = 3               :  Bulk

  Supercell dimensions :  x =   2  y =   1  z =   1

  Cartesian lattice vectors (Angstroms) :

       11.860000    0.000000    0.000000
        0.000000    5.930000    0.000000
        0.000000    0.000000    5.930000

  Cell parameters (Angstroms/Degrees):

  a =      11.8600    alpha =  90.0000
  b =       5.9300    beta  =  90.0000
  c =       5.9300    gamma =  90.0000

  Initial cell volume =         417.055714 Angs**3

  Temperature of configuration =  0.000     K

  Pressure of configuration =         0.000 GPa

  Fractional coordinates of asymmetric unit :

   No.  Atomic       x           y          z         Charge      Occupancy
        Label      (Frac)      (Frac)     (Frac)        (e)         (Frac)
      1 C1    c    0.457660    0.999910    0.980150     0.77100    1.000000
      2 C1    c    0.957660 *  0.999910 *  0.980150 *   0.77100    1.000000
      3 N1    c    0.077580 *  0.999750 *  0.048590 *  -1.10000    1.000000
      4 N1    c    0.577580 *  0.999750 *  0.048590 *  -1.10000    1.000000
      5 H1    c    0.452515 *  0.999720 *  0.795140 *   0.02300    1.000000
      6 H1    c    0.952515 *  0.999720 *  0.795140 *   0.02300    1.000000
      7 H1    c    0.416910 *  0.152120 *  0.047760 *   0.02300    1.000000
      8 H1    c    0.916910 *  0.152120 *  0.047760 *   0.02300    1.000000
      9 H1    c    0.416765 *  0.848040 *  0.048110 *   0.02300    1.000000
     10 H1    c    0.916765 *  0.848040 *  0.048110 *   0.02300    1.000000
     11 H2    c    0.120030 *  0.142190 *  0.989270 *   0.54000    1.000000
     12 H2    c    0.620030 *  0.142190 *  0.989270 *   0.54000    1.000000
     13 H2    c    0.119930 *  0.857170 *  0.989330 *   0.54000    1.000000
     14 H2    c    0.619930 *  0.857170 *  0.989330 *   0.54000    1.000000
     15 H2    c    0.088690 *  0.999770 *  0.223280 *   0.54000    1.000000
     16 H2    c    0.588690 *  0.999770 *  0.223280 *   0.54000    1.000000
     17 Pb    c    0.248790 *  0.500070 *  0.498180 *   2.03000    1.000000
     18 Pb    c    0.748790 *  0.500070 *  0.498180 *   2.03000    1.000000
     19 Br    c    0.223385 *  0.499640 *  0.992230 *  -1.13000    1.000000
     20 Br    c    0.723385 *  0.499640 *  0.992230 *  -1.13000    1.000000
     21 Br    c    0.226030 *  0.000340 *  0.526040 *  -1.13000    1.000000
     22 Br    c    0.726030 *  0.000340 *  0.526040 *  -1.13000    1.000000
     23 Br    c    0.493330 *  0.500630 *  0.459060 *  -1.13000    1.000000
     24 Br    c    0.993330 *  0.500630 *  0.459060 *  -1.13000    1.000000

  Molecule list generated from bond lengths :

  Bonds between the following atom types will be excluded :

   H1    Core   - H2    Core
   H1    Core   - H1    Core
   H2    Core   - H2    Core
   H1    Core   - N1    Core
   H2    Core   - C1    Core
   Pb    Core   - Pb    Core
   I     Core   - I     Core
   Br    Core   - Br    Core
   I     Core   - Pb    Core
   Br    Core   - Pb    Core
   C1    Core   - Pb    Core
   N1    Core   - Pb    Core
   H1    Core   - Pb    Core
   H2    Core   - Pb    Core
   C1    Core   - I     Core
   C1    Core   - Br    Core
   N1    Core   - I     Core
   N1    Core   - Br    Core
   H1    Core   - I     Core
   H1    Core   - Br    Core
   H2    Core   - I     Core
   H2    Core   - Br    Core
   H1    Core   - H2    Core
   H1    Core   - H1    Core
   H2    Core   - H2    Core
   H1    Core   - N1    Core
   H2    Core   - C1    Core
   Pb    Core   - Pb    Core
   I     Core   - I     Core
   Br    Core   - Br    Core
   I     Core   - Pb    Core
   Br    Core   - Pb    Core
   C1    Core   - Pb    Core
   N1    Core   - Pb    Core
   H1    Core   - Pb    Core
   H2    Core   - Pb    Core
   C1    Core   - I     Core
   C1    Core   - Br    Core
   N1    Core   - I     Core
   N1    Core   - Br    Core
   H1    Core   - I     Core
   H1    Core   - Br    Core
   H2    Core   - I     Core
   H2    Core   - Br    Core

  Total number of molecules =     2

Molecule No./:  Atoms
Periodicity  :
     1  0    : C1   c     1 N1   c     4 H1   c     5 H1   c     7 H1   c     9
             : H2   c    12 H2   c    14 H2   c    16
     2  0    : C1   c     2 N1   c     3 H1   c     6 H1   c     8 H1   c    10
             : H2   c    11 H2   c    13 H2   c    15

[...]

*  Input for Configuration =  17                                               *

  Formula = C2N2H12Pb2Br6

  Number of irreducible atoms/shells =      24

  Total number atoms/shells =      24

  Dimensionality = 3               :  Bulk

  Supercell dimensions :  x =   2  y =   1  z =   1

  Cartesian lattice vectors (Angstroms) :

       11.000000    0.000000    0.000000
        0.000000    5.500000    0.000000
        0.000000    0.000000    5.500000

  Cell parameters (Angstroms/Degrees):

  a =      11.0000    alpha =  90.0000
  b =       5.5000    beta  =  90.0000
  c =       5.5000    gamma =  90.0000

  Initial cell volume =         332.750000 Angs**3

  Temperature of configuration =  0.000     K

  Pressure of configuration =         0.000 GPa

  Fractional coordinates of asymmetric unit :

   No.  Atomic       x           y          z         Charge      Occupancy
        Label      (Frac)      (Frac)     (Frac)        (e)         (Frac)
      1 C1    c    0.452560    0.000440    0.949000     0.77100    1.000000
      2 C1    c    0.952560 *  0.000440 *  0.949000 *   0.77100    1.000000
      3 N1    c    0.068915 *  0.999510 *  0.079090 *  -1.10000    1.000000
      4 N1    c    0.568915 *  0.999510 *  0.079090 *  -1.10000    1.000000
      5 H1    c    0.471065 *  0.999890 *  0.752900 *   0.02300    1.000000
      6 H1    c    0.971065 *  0.999890 *  0.752900 *   0.02300    1.000000
      7 H1    c    0.401335 *  0.164800 *  0.998300 *   0.02300    1.000000
      8 H1    c    0.901335 *  0.164800 *  0.998300 *   0.02300    1.000000
      9 H1    c    0.400650 *  0.837020 *  0.998580 *   0.02300    1.000000
     10 H1    c    0.900650 *  0.837020 *  0.998580 *   0.02300    1.000000
     11 H2    c    0.120670 *  0.153240 *  0.036110 *   0.54000    1.000000
     12 H2    c    0.620670 *  0.153240 *  0.036110 *   0.54000    1.000000
     13 H2    c    0.120495 *  0.845860 *  0.034680 *   0.54000    1.000000
     14 H2    c    0.620495 *  0.845860 *  0.034680 *   0.54000    1.000000
     15 H2    c    0.059775 *  0.998270 *  0.266780 *   0.54000    1.000000
     16 H2    c    0.559775 *  0.998270 *  0.266780 *   0.54000    1.000000
     17 Pb    c    0.274515 *  0.498340 *  0.496630 *   2.03000    1.000000
     18 Pb    c    0.774515 *  0.498340 *  0.496630 *   2.03000    1.000000
     19 Br    c    0.226995 *  0.499970 *  0.992260 *  -1.13000    1.000000
     20 Br    c    0.726995 *  0.499970 *  0.992260 *  -1.13000    1.000000
     21 Br    c    0.225600 *  0.999210 *  0.561800 *  -1.13000    1.000000
     22 Br    c    0.725600 *  0.999210 *  0.561800 *  -1.13000    1.000000
     23 Br    c    0.019040 *  0.502790 *  0.431010 *  -1.13000    1.000000
     24 Br    c    0.519040 *  0.502790 *  0.431010 *  -1.13000    1.000000

  Molecule list generated from bond lengths :

  Bonds between the following atom types will be excluded :

   H1    Core   - H2    Core
   H1    Core   - H1    Core
   H2    Core   - H2    Core
   H1    Core   - N1    Core
   H2    Core   - C1    Core
   Pb    Core   - Pb    Core
   I     Core   - I     Core
   Br    Core   - Br    Core
   I     Core   - Pb    Core
   Br    Core   - Pb    Core
   C1    Core   - Pb    Core
   N1    Core   - Pb    Core
   H1    Core   - Pb    Core
   H2    Core   - Pb    Core
   C1    Core   - I     Core
   C1    Core   - Br    Core
   N1    Core   - I     Core
   N1    Core   - Br    Core
   H1    Core   - I     Core
   H1    Core   - Br    Core
   H2    Core   - I     Core
   H2    Core   - Br    Core
   H1    Core   - H2    Core
   H1    Core   - H1    Core
   H2    Core   - H2    Core
   H1    Core   - N1    Core
   H2    Core   - C1    Core
   Pb    Core   - Pb    Core
   I     Core   - I     Core
   Br    Core   - Br    Core
   I     Core   - Pb    Core
   Br    Core   - Pb    Core
   C1    Core   - Pb    Core
   N1    Core   - Pb    Core
   H1    Core   - Pb    Core
   H2    Core   - Pb    Core
   C1    Core   - I     Core
   C1    Core   - Br    Core
   N1    Core   - I     Core
   N1    Core   - Br    Core
   H1    Core   - I     Core
   H1    Core   - Br    Core
   H2    Core   - I     Core
   H2    Core   - Br    Core

  Total number of molecules =     2

Molecule No./:  Atoms
Periodicity  :
     1  0    : C1   c     1 N1   c     4 H1   c     5 H1   c     7 H1   c     9
             : H2   c    12 H2   c    14 H2   c    16
     2  0    : C1   c     2 N1   c     3 H1   c     6 H1   c     8 H1   c    10
             : H2   c    11 H2   c    13 H2   c    15

*  General input information                                                   *

  Species output for all configurations :

  Species    Type    Atomic    Atomic    Charge       Radii (Angs)     Library
                     Number     Mass       (e)     Cova   Ionic  VDW   Symbol
    C1       Core        6      12.01   0.771000   0.770  0.000  1.530
    N1       Core        7      14.01  -1.100000   0.750  0.000  1.480
    H1       Core        1       1.01   0.023000   0.370  0.000  1.080
    H2       Core        1       1.01   0.540000   0.370  0.000  1.080
    Pb       Core       82     207.20   2.030000   1.540  0.000  2.300
    I        Core       53     126.91  -1.130000   1.400  0.000  2.050
    Br       Core       35      79.90  -1.130000   1.210  0.000  1.800

  Lattice summation method               =    Ewald          (3-D)
                                         =    Parry          (2-D)
                                         =    Saunders et al (1-D)
  Accuracy factor for lattice sums       =   12.000

  Time limit = Infinity

  Maximum range for interatomic potentials =    100000.000000 Angstroms

  General interatomic potentials :

Atom  Types   Potential         A         B         C         D     Cutoffs(Ang)
  1     2                                                            Min    Max
C1   c C1   c Lenn/es 12  6 0.474E-02  3.40      0.00      0.00     3Bond 12.000
C1   c N1   c Lenn/es 12  6 0.591E-02  3.32      0.00      0.00     3Bond 12.000
H1   c C1   c Lenn/es 12  6 0.180E-02  2.68      0.00      0.00     3Bond 12.000
H2   c C1   c Lenn/es 12  6 0.180E-02  2.23      0.00      0.00     3Bond 12.000
N1   c N1   c Lenn/es 12  6 0.737E-02  3.25      0.00      0.00     3Bond 12.000
H1   c N1   c Lenn/es 12  6 0.224E-02  2.60      0.00      0.00     3Bond 12.000
H2   c N1   c Lenn/es 12  6 0.224E-02  2.16      0.00      0.00     3Bond 12.000
H1   c H1   c Lenn/es 12  6 0.681E-03  1.96      0.00      0.00     3Bond 12.000
[...]
         76        Derivative         0.00000      0.23174      0.05370
         77        Derivative         0.00000      2.28965      5.24250
[...]
       1176        Derivative         0.00000    -77.66129   6031.27549
       1177        Derivative         0.00000      0.91869      0.84399
       1178        Derivative         0.00000      1.22252      1.49457
       1179        Derivative         0.00000    -61.43374   3774.10439
       1180        Derivative         0.00000     -1.52583      2.32815
       1181        Derivative         0.00000      8.52998     72.76061
       1182        Derivative         0.00000    -61.43374   3774.10439
       1183        Derivative         0.00000     -1.52583      2.32815
       1184        Derivative         0.00000      8.52998     72.76061
       1185        Derivative         0.00000    127.78111  16328.01240
       1186        Derivative         0.00000      1.17488      1.38033
       1187        Derivative         0.00000    -13.21835    174.72476
       1188        Derivative         0.00000    127.78111  16328.01240
       1189        Derivative         0.00000      1.17488      1.38033
       1190        Derivative         0.00000    -13.21835    174.72476

  Comparison of initial and final observables :

   Observable no.  Type            Observable   Initial       Final
          1        Energy             0.00000    -59.12715     -7.29315
          2        Energy             0.00030    -59.00464     -6.60017
          3        Energy             0.00086    -59.31230     -8.65247
          4        Energy             0.00402    -58.78290     -5.22164
          5        Energy             0.00930    -58.51502     -3.75444
          6        Energy             0.01385    -59.81947    -12.00493
          7        Energy             0.02258    -58.01329     -1.24247
          8        Energy             0.03930    -60.16666    -15.00074
          9        Energy             0.06233    -57.06686      3.19265
         10        Energy             0.07284    -60.40645    -17.71793
         11        Energy             0.15101    -60.09478    -20.02073
         12        Energy             0.20890    -54.80047     13.29461
         13        Energy             0.22804    -59.59179    -22.21865
         14        Energy             0.29857    -59.34383    -24.53665
         15        Energy             0.36651    -58.98408    -26.30559
         16        Energy             0.44103    -51.80826     24.71361
         17        Energy             0.80800    -47.95355     38.52202
         18        Derivative         0.00000     17.05503     17.05503
         19        Derivative         0.00000     -0.05625     -0.05625
         20        Derivative         0.00000      1.46750      1.46750
         21        Derivative         0.00000    -12.98699    -12.98699
         22        Derivative         0.00000      0.01295      0.01295
         23        Derivative         0.00000     -2.03351     -2.03351
         24        Derivative         0.00000    -12.98699    -12.98699
         25        Derivative         0.00000      0.01295      0.01295
         26        Derivative         0.00000     -2.03351     -2.03351
         27        Derivative         0.00000     -3.36042     -3.36042
         28        Derivative         0.00000      0.00341      0.00341
         29        Derivative         0.00000     -2.62470     -2.62470
         30        Derivative         0.00000     -3.36042     -3.36042
         31        Derivative         0.00000      0.00341      0.00341
         32        Derivative         0.00000     -2.62470     -2.62470
         33        Derivative         0.00000     -4.75294     -4.75294
         34        Derivative         0.00000      2.15346      2.15346
         35        Derivative         0.00000      0.44884      0.44884
         36        Derivative         0.00000     -4.75294     -4.75294
         37        Derivative         0.00000      2.15346      2.15346
         38        Derivative         0.00000      0.44884      0.44884
         39        Derivative         0.00000     -4.71717     -4.71717
         40        Derivative         0.00000     -2.10591     -2.10591
         41        Derivative         0.00000      0.44408      0.44408
         42        Derivative         0.00000     -4.71717     -4.71717
         43        Derivative         0.00000     -2.10591     -2.10591
         44        Derivative         0.00000      0.44408      0.44408
         45        Derivative         0.00000      5.63110      5.63110
         46        Derivative         0.00000      1.71843      1.71843
         47        Derivative         0.00000      0.58576      0.58576
         48        Derivative         0.00000      5.63110      5.63110
         49        Derivative         0.00000      1.71843      1.71843
         50        Derivative         0.00000      0.58576      0.58576
         51        Derivative         0.00000      5.64488      5.64488
         52        Derivative         0.00000     -1.72722     -1.72722
         53        Derivative         0.00000      0.58288      0.58288
         54        Derivative         0.00000      5.64488      5.64488
         55        Derivative         0.00000     -1.72722     -1.72722
         56        Derivative         0.00000      0.58288      0.58288
         57        Derivative         0.00000      6.19065      6.19065
         58        Derivative         0.00000     -0.00494     -0.00494
         59        Derivative         0.00000      2.17405      2.17405
         60        Derivative         0.00000      6.19065      6.19065
         61        Derivative         0.00000     -0.00494     -0.00494
         62        Derivative         0.00000      2.17405      2.17405
         63        Derivative         0.00000      4.15420      3.99448
         64        Derivative         0.00000     -0.04519     -0.08479
         65        Derivative         0.00000      1.03875      1.73205
         66        Derivative         0.00000      4.15420      3.99448
         67        Derivative         0.00000     -0.04519     -0.08479
         68        Derivative         0.00000      1.03875      1.73205
         69        Derivative         0.00000     -9.73949    -25.70187
         70        Derivative         0.00000     -0.05157     -0.12255
         71        Derivative         0.00000     -0.27094     -0.96752
         72        Derivative         0.00000     -9.73949    -25.70187
         73        Derivative         0.00000     -0.05157     -0.12255
         74        Derivative         0.00000     -0.27094     -0.96752
         75        Derivative         0.00000     -9.93219    -24.28952
         76        Derivative         0.00000      0.08967      0.23174
         77        Derivative         0.00000      0.56918      2.28965
[...]
       1176        Derivative         0.00000    -28.35536    -77.66129
       1177        Derivative         0.00000      0.30974      0.91869
       1178        Derivative         0.00000      0.84039      1.22252
       1179        Derivative         0.00000    -23.26184    -61.43374
       1180        Derivative         0.00000     -0.31737     -1.52583
       1181        Derivative         0.00000      4.93944      8.52998
       1182        Derivative         0.00000    -23.26184    -61.43374
       1183        Derivative         0.00000     -0.31737     -1.52583
       1184        Derivative         0.00000      4.93944      8.52998
       1185        Derivative         0.00000     34.71038    127.78111
       1186        Derivative         0.00000      0.59357      1.17488
       1187        Derivative         0.00000     -8.65221    -13.21835
       1188        Derivative         0.00000     34.71038    127.78111
       1189        Derivative         0.00000      0.59357      1.17488
       1190        Derivative         0.00000     -8.65221    -13.21835

  Maximum range for interatomic potentials =    100000.000000 Angstroms

  General interatomic potentials :

Atom  Types   Potential         A         B         C         D     Cutoffs(Ang)
  1     2                                                            Min    Max
C1   c C1   c Lenn/es 12  6 0.474E-02  3.40      0.00      0.00     3Bond 12.000
C1   c N1   c Lenn/es 12  6 0.591E-02  3.32      0.00      0.00     3Bond 12.000
H1   c C1   c Lenn/es 12  6 0.180E-02  2.68      0.00      0.00     3Bond 12.000
H2   c C1   c Lenn/es 12  6 0.180E-02  2.23      0.00      0.00     3Bond 12.000
N1   c N1   c Lenn/es 12  6 0.737E-02  3.25      0.00      0.00     3Bond 12.000
H1   c N1   c Lenn/es 12  6 0.224E-02  2.60      0.00      0.00     3Bond 12.000
H2   c N1   c Lenn/es 12  6 0.224E-02  2.16      0.00      0.00     3Bond 12.000
H1   c H1   c Lenn/es 12  6 0.681E-03  1.96      0.00      0.00     3Bond 12.000
H1   c H2   c Lenn/es 12  6 0.681E-03  1.51      0.00      0.00     3Bond 12.000
H1   c Pb   c Lenn/es 12  6 0.607E-03  2.26      0.00      0.00     3Bond 12.000
H1   c I    c Lenn/es 12  6 0.249E-02  3.10      0.00      0.00     3Bond 12.000
H2   c Br   c Lenn/es 12  6 0.222E-02  2.46      0.00      0.00     3Bond 12.000
H1   c Br   c Lenn/es 12  6 0.222E-02  2.77      0.00      0.00     3Bond 12.000
H2   c H2   c Lenn/es 12  6 0.681E-03  1.07      0.00      0.00     3Bond 12.000
H2   c Pb   c Lenn/es 12  6 0.607E-03  2.71      0.00      0.00     3Bond 12.000
H2   c I    c Lenn/es 12  6 0.249E-02  2.75      0.00      0.00     3Bond 12.000
C1   c C1   c Lenn/es 12  6 0.474E-02  3.40      0.00      0.00     3Bond 12.000
C1   c N1   c Lenn/es 12  6 0.591E-02  3.32      0.00      0.00     3Bond 12.000
H1   c C1   c Lenn/es 12  6 0.180E-02  2.68      0.00      0.00     3Bond 12.000
H2   c C1   c Lenn/es 12  6 0.180E-02  2.23      0.00      0.00     3Bond 12.000
N1   c N1   c Lenn/es 12  6 0.737E-02  3.25      0.00      0.00     3Bond 12.000
H1   c N1   c Lenn/es 12  6 0.224E-02  2.60      0.00      0.00     3Bond 12.000
H2   c N1   c Lenn/es 12  6 0.224E-02  2.16      0.00      0.00     3Bond 12.000
H1   c H1   c Lenn/es 12  6 0.681E-03  1.96      0.00      0.00     3Bond 12.000
H1   c H2   c Lenn/es 12  6 0.681E-03  1.51      0.00      0.00     3Bond 12.000
H1   c Pb   c Lenn/es 12  6 0.607E-03  2.26      0.00      0.00     3Bond 12.000
H1   c I    c Lenn/es 12  6 0.249E-02  3.10      0.00      0.00     3Bond 12.000
H2   c Br   c Lenn/es 12  6 0.222E-02  2.46      0.00      0.00     3Bond 12.000
H1   c Br   c Lenn/es 12  6 0.222E-02  2.77      0.00      0.00     3Bond 12.000
H2   c H2   c Lenn/es 12  6 0.681E-03  1.07      0.00      0.00     3Bond 12.000
H2   c Pb   c Lenn/es 12  6 0.607E-03  2.71      0.00      0.00     3Bond 12.000
H2   c I    c Lenn/es 12  6 0.249E-02  2.75      0.00      0.00     3Bond 12.000

  Intramolecular potentials :

Atom  Types   Potential         A         B         C         D     Cutoffs(Ang)
  1     2                                                            Min    Max
C1   c N1   c Harmonic       25.5      1.50      0.00      0.00     0.000 1 Bond
H1   c C1   c Harmonic       29.4      1.09      0.00      0.00     0.000 1 Bond
H2   c N1   c Harmonic       32.0      1.03      0.00      0.00     0.000 1 Bond
C1   c N1   c Harmonic       25.5      1.50      0.00      0.00     0.000 1 Bond
H1   c C1   c Harmonic       29.4      1.09      0.00      0.00     0.000 1 Bond
H2   c N1   c Harmonic       32.0      1.03      0.00      0.00     0.000 1 Bond

  Intermolecular potentials :

Atom  Types   Potential         A         B         C         D     Cutoffs(Ang)
  1     2                                                            Min    Max
Pb   c Pb   c Buckingham    0.305E+07 0.131      0.00      0.00     0.000 12.000
Br   c Pb   c Buckingham    0.478E+04 0.328      0.00      0.00     0.000 12.000
Br   c Br   c Buckingham    0.105E+04 0.665      28.4      0.00     0.000 12.000
I    c Pb   c Buckingham    0.449E+04 0.322      0.00      0.00     0.000 12.000
I    c I    c Buckingham     988.     0.482      30.2      0.00     0.000 12.000
C1   c Pb   c Buckingham    0.142E+07 0.151      0.00      0.00     0.000 12.000
C1   c I    c Buckingham    0.490E+04 0.342      0.00      0.00     0.000 12.000
N1   c Pb   c Buckingham    0.142E+07 0.151      0.00      0.00     0.000 12.000
N1   c I    c Buckingham    0.490E+04 0.342      0.00      0.00     0.000 12.000
N1   c Br   c Buckingham    0.411E+04 0.335      0.00      0.00     0.000 12.000
C1   c Br   c Buckingham    0.411E+04 0.335      0.00      0.00     0.000 12.000
Pb   c Pb   c Buckingham    0.305E+07 0.131      0.00      0.00     0.000 12.000
Br   c Pb   c Buckingham    0.478E+04 0.302      0.00      0.00     0.000 12.000
Br   c Br   c Buckingham    0.105E+04 0.453      28.4      0.00     0.000 12.000
I    c Pb   c Buckingham    0.449E+04 0.322      0.00      0.00     0.000 12.000
I    c I    c Buckingham     988.     0.482      30.2      0.00     0.000 12.000
C1   c Pb   c Buckingham    0.142E+07 0.151      0.00      0.00     0.000 12.000
C1   c I    c Buckingham    0.490E+04 0.342      0.00      0.00     0.000 12.000
N1   c Pb   c Buckingham    0.142E+07 0.151      0.00      0.00     0.000 12.000
N1   c I    c Buckingham    0.490E+04 0.342      0.00      0.00     0.000 12.000
N1   c Br   c Buckingham    0.411E+04 0.335      0.00      0.00     0.000 12.000
C1   c Br   c Buckingham    0.411E+04 0.335      0.00      0.00     0.000 12.000

  Intramolecular Three-body potentials :

  Harmonic form:

Atom    Atom    Atom           Force Constants            Theta     Cutoffs
  1       2       3     (eVrad**-2/eVrad**-3/eVrad**-4)   (deg)  1-2  1-3  2-3
C1    c H1    c N1    c  4.250        0.0000    0.0000   107.910     Bonded
C1    c H1    c H1    c  3.382        0.0000    0.0000   110.740     Bonded
N1    c H2    c C1    c  4.007        0.0000    0.0000   110.110     Bonded
N1    c H2    c H2    c  3.513        0.0000    0.0000   108.110     Bonded
C1    c H1    c N1    c  4.250        0.0000    0.0000   107.910     Bonded
C1    c H1    c H1    c  3.382        0.0000    0.0000   110.740     Bonded
N1    c H2    c C1    c  4.007        0.0000    0.0000   110.110     Bonded
N1    c H2    c H2    c  3.513        0.0000    0.0000   108.110     Bonded

  Intramolecular Four-body potentials :

  Standard form:

         Atom Types             Force cst Sign Phase Phi0         Cutoffs
   1       2       3       4       (eV)                     1-2  2-3  3-4  4-1
H1    c C1    c N1    c H2    c  0.3374E-02 +   3     0.00  Bonded
H1    c C1    c N1    c H2    c  0.3374E-02 +   3     0.00  Bonded

  Total time to end of fitting =      14.9532 seconds

*  Output for configuration   1                                                *

  Components of energy :

  Interatomic potentials     =          65.99267413 eV
  Three-body potentials      =           0.06973219 eV
  Four-body potentials       =           0.00004150 eV
  Improper torsions          =           0.00000000 eV
  Out of plane potentials    =           0.00000000 eV
  Monopole - monopole (real) =         -20.15926224 eV
  Monopole - monopole (recip)=         -53.19633240 eV
  Monopole - monopole (total)=         -73.35559463 eV
  Total lattice energy       =          -7.29314681 eV
  Total lattice energy       =            -703.6772 kJ/(mole unit cells)

[...]

*  Output for configuration  17                                                *

  Components of energy :

  Interatomic potentials     =         116.16224564 eV
  Three-body potentials      =           0.06496443 eV
  Four-body potentials       =           0.00004057 eV
  Improper torsions          =           0.00000000 eV
  Out of plane potentials    =           0.00000000 eV
  Monopole - monopole (real) =         -20.49842683 eV
  Monopole - monopole (recip)=         -57.20679942 eV
  Monopole - monopole (total)=         -77.70522625 eV
  Total lattice energy       =          38.52202439 eV
  Total lattice energy       =            3716.7865 kJ/(mole unit cells)

  Timing analysis for GULP :

  Task / Subroutine                                          Time (Seconds)
  Calculation of reciprocal space energy and derivatives          0.7840
  Calculation of real space energy and derivatives                7.3746
  Calculation of three-body energy and derivatives                2.0798
  Calculation of four-body energy and derivatives                 3.2580
  Calculation of molecules and connectivity                       0.3686
  Sum of squares for fitting                                      0.3644
  Global summation overhead                                       0.9097

  Dump file written as out.res

  Job Finished at 18:55.58  8th May        2018